\ Model RMP
\ LP format - for model browsing. Use MPS format to capture full model detail.
Minimize
  137.4 y_0 + 141.2 y_1 + 132.2 y_2 + 136.2 y_3 + 130.3 y_4 + 138 y_5
   + 132 y_6 + 136.2 y_7 + 140.2 y_8 + 133.5 y_9 + 139.3 y_10 + 176.2 y_11
   + 161.6 y_12 + 178.7 y_13 + 172.1 y_14 + 180.6 y_15 + 166.6 y_16
   + 170.7 y_17 + 178.1 y_18 + 120 y_19
Subject To
 R0: y_0 = 1
 R1: y_1 = 1
 R2: y_2 = 1
 R3: y_3 = 1
 R4: y_4 = 1
 R5: y_5 = 1
 R6: y_6 = 1
 R7: y_7 = 1
 R8: y_8 = 1
 R9: y_9 = 1
 R10: y_10 = 1
 R11: y_11 = 1
 R12: y_12 = 1
 R13: y_13 = 1
 R14: y_14 = 1
 R15: y_15 = 1
 R16: y_16 = 1
 R17: y_17 = 1
 R18: y_18 = 1
 R19: y_19 = 1
Bounds
End
